(declare-const v0 Bool)
(declare-const v1 Bool)
(declare-const v2 Bool)
(declare-const v3 Bool)
(declare-const v4 Bool)
(assert (edge (or v0 v1) (not v0)))
(assert (edge (or v1 v2) true))
(assert (edge v3 (or (not v1) (not v3))))
(assert (edge true v1))
(assert (edge (not v1) (or v4 (not v0))))
(assert (not (edge (or v0 v3 v4) (or v3 (not v4)))))